
Gurobi 7.0.2 (win64, Python) logging started 09/07/17 16:03:32


Gurobi 7.0.2 (win64, Python) logging started 09/07/17 16:04:16


Gurobi 7.0.2 (win64, Python) logging started 09/07/17 16:05:06


Gurobi 7.0.2 (win64, Python) logging started 09/07/17 16:06:10


Gurobi 7.0.2 (win64, Python) logging started 09/07/17 16:06:28


Gurobi 7.0.2 (win64, Python) logging started 09/07/17 16:26:40


Gurobi 7.0.2 (win64, Python) logging started 09/07/17 16:27:09


Gurobi 7.0.2 (win64, Python) logging started 09/07/17 16:32:09


Gurobi 7.0.2 (win64, Python) logging started 09/07/17 16:34:14


Gurobi 7.0.2 (win64, Python) logging started 09/07/17 16:35:45


Gurobi 7.0.2 (win64, Python) logging started 09/07/17 16:35:55


Gurobi 7.0.2 (win64, Python) logging started 09/07/17 17:01:48


Gurobi 7.0.2 (win64, Python) logging started 09/07/17 17:02:46


Gurobi 7.0.2 (win64, Python) logging started 09/07/17 17:07:03


Gurobi 7.0.2 (win64, Python) logging started 09/08/17 12:29:27


Gurobi 7.0.2 (win64, Python) logging started 09/08/17 16:58:53


Gurobi 7.0.2 (win64, Python) logging started 09/11/17 06:43:04


Gurobi 7.0.2 (win64, Python) logging started 09/11/17 06:45:06


Gurobi 7.0.2 (win64, Python) logging started 09/11/17 06:45:46


Gurobi 7.0.2 (win64, Python) logging started 09/11/17 06:46:34


Gurobi 7.0.2 (win64, Python) logging started 09/11/17 07:05:26


Gurobi 7.0.2 (win64, Python) logging started 09/11/17 07:06:35


Gurobi 7.0.2 (win64, Python) logging started 09/11/17 07:06:59


Gurobi 7.0.2 (win64, Python) logging started 09/11/17 07:27:29


Gurobi 7.0.2 (win64, Python) logging started 09/14/17 14:51:35


Gurobi 7.0.2 (win64, Python) logging started 09/14/17 15:08:23


Gurobi 7.0.2 (win64, Python) logging started 09/14/17 19:31:50


Gurobi 7.0.2 (win64, Python) logging started 09/14/17 19:33:50


Gurobi 7.0.2 (win64, Python) logging started 09/14/17 19:35:03


Gurobi 7.0.2 (win64, Python) logging started 09/18/17 07:51:50


Gurobi 7.0.2 (win64, Python) logging started 10/01/17 06:53:12


Gurobi 7.0.2 (win64, Python) logging started 10/01/17 07:03:14


Gurobi 7.0.2 (win64, Python) logging started 10/01/17 07:15:40


Gurobi 7.0.2 (win64, Python) logging started 10/07/17 14:26:07


Gurobi 7.0.2 (win64, Python) logging started 10/07/17 14:27:38


Gurobi 7.0.2 (win64, Python) logging started 10/07/17 17:08:11


Gurobi 7.0.2 (win64, Python) logging started 10/07/17 17:10:37


Gurobi 7.0.2 (win64, Python) logging started 10/07/17 17:12:00


Gurobi 7.0.2 (win64, Python) logging started 10/07/17 17:20:51


Gurobi 7.0.2 (win64, Python) logging started 10/07/17 17:28:11


Gurobi 7.0.2 (win64, Python) logging started 10/07/17 17:28:53


Gurobi 7.0.2 (win64, Python) logging started 10/07/17 17:29:28


Gurobi 7.0.2 (win64, Python) logging started 10/07/17 17:29:51


Gurobi 7.0.2 (win64, Python) logging started 10/07/17 17:30:32


Gurobi 7.0.2 (win64, Python) logging started 10/07/17 17:31:23


Gurobi 7.0.2 (win64, Python) logging started 10/07/17 17:33:12


Gurobi 7.0.2 (win64, Python) logging started 10/07/17 17:35:48


Gurobi 7.0.2 (win64, Python) logging started 10/07/17 17:37:12


Gurobi 7.0.2 (win64, Python) logging started 10/07/17 17:38:01


Gurobi 7.0.2 (win64, Python) logging started 10/07/17 17:38:45


Gurobi 7.0.2 (win64, Python) logging started 10/07/17 17:45:11


Gurobi 7.0.2 (win64, Python) logging started 10/07/17 17:49:02


Gurobi 7.0.2 (win64, Python) logging started 10/07/17 17:50:41


Gurobi 7.0.2 (win64, Python) logging started 10/07/17 17:51:14


Gurobi 7.0.2 (win64, Python) logging started 10/07/17 17:52:46


Gurobi 7.0.2 (win64, Python) logging started 10/07/17 17:53:59


Gurobi 7.0.2 (win64, Python) logging started 10/07/17 17:55:07


Gurobi 7.0.2 (win64, Python) logging started 10/07/17 17:55:33


Gurobi 7.0.2 (win64, Python) logging started 10/07/17 17:56:29


Gurobi 7.0.2 (win64, Python) logging started 10/08/17 09:21:45


Gurobi 7.0.2 (win64, Python) logging started 10/08/17 09:22:43


Gurobi 7.0.2 (win64, Python) logging started 10/08/17 09:23:21


Gurobi 7.0.2 (win64, Python) logging started 10/08/17 09:24:55


Gurobi 7.0.2 (win64, Python) logging started 10/08/17 09:25:53


Gurobi 7.0.2 (win64, Python) logging started 10/08/17 09:26:09


Gurobi 7.0.2 (win64, Python) logging started 10/08/17 09:28:44


Gurobi 7.0.2 (win64, Python) logging started 10/08/17 09:30:42


Gurobi 7.0.2 (win64, Python) logging started 10/08/17 09:31:06


Gurobi 7.0.2 (win64, Python) logging started 10/08/17 09:32:51


Gurobi 7.0.2 (win64, Python) logging started 10/08/17 09:37:07


Gurobi 7.0.2 (win64, Python) logging started 10/10/17 15:19:37


Gurobi 7.0.2 (win64, Python) logging started 10/10/17 21:15:11


Gurobi 7.0.2 (win64, Python) logging started 10/10/17 21:17:10


Gurobi 7.0.2 (win64, Python) logging started 10/10/17 21:18:16


Gurobi 7.0.2 (win64, Python) logging started 10/10/17 21:20:18


Gurobi 7.0.2 (win64, Python) logging started 10/10/17 21:25:12


Gurobi 7.0.2 (win64, Python) logging started 10/10/17 21:28:50


Gurobi 7.0.2 (win64, Python) logging started 10/10/17 21:30:33


Gurobi 7.0.2 (win64, Python) logging started 10/10/17 21:31:08


Gurobi 7.0.2 (win64, Python) logging started 10/10/17 22:06:04


Gurobi 7.0.2 (win64, Python) logging started 10/10/17 22:07:23


Gurobi 7.0.2 (win64, Python) logging started 10/10/17 22:08:21


Gurobi 7.0.2 (win64, Python) logging started 10/10/17 22:09:46


Gurobi 7.0.2 (win64, Python) logging started 10/10/17 22:12:29


Gurobi 7.0.2 (win64, Python) logging started 10/11/17 07:16:48


Gurobi 7.0.2 (win64, Python) logging started 10/11/17 07:18:20


Gurobi 7.0.2 (win64, Python) logging started 10/11/17 07:20:17


Gurobi 7.0.2 (win64, Python) logging started 10/11/17 07:22:32


Gurobi 7.0.2 (win64, Python) logging started 10/11/17 07:23:59


Gurobi 7.0.2 (win64, Python) logging started 10/11/17 07:24:45


Gurobi 7.0.2 (win64, Python) logging started 10/11/17 07:29:33


Gurobi 7.0.2 (win64, Python) logging started 10/11/17 07:29:51


Gurobi 7.0.2 (win64, Python) logging started 10/11/17 07:37:16


Gurobi 7.0.2 (win64, Python) logging started 10/11/17 07:38:18


Gurobi 7.0.2 (win64, Python) logging started 10/11/17 07:41:17


Gurobi 7.0.2 (win64, Python) logging started 10/11/17 07:44:15


Gurobi 7.0.2 (win64, Python) logging started 10/11/17 07:45:18


Gurobi 7.0.2 (win64, Python) logging started 10/11/17 07:45:43


Gurobi 7.0.2 (win64, Python) logging started 10/11/17 07:47:28


Gurobi 7.0.2 (win64, Python) logging started 10/11/17 07:47:59


Gurobi 7.0.2 (win64, Python) logging started 10/11/17 07:49:25


Gurobi 7.0.2 (win64, Python) logging started 10/11/17 07:50:50


Gurobi 7.0.2 (win64, Python) logging started 10/11/17 07:51:36


Gurobi 7.0.2 (win64, Python) logging started 10/11/17 07:52:05


Gurobi 7.0.2 (win64, Python) logging started 10/11/17 07:52:46


Gurobi 7.0.2 (win64, Python) logging started 10/11/17 07:53:23


Gurobi 7.0.2 (win64, Python) logging started 10/11/17 07:53:39


Gurobi 7.0.2 (win64, Python) logging started 10/11/17 07:53:58


Gurobi 7.0.2 (win64, Python) logging started 10/11/17 07:54:20


Gurobi 7.0.2 (win64, Python) logging started 10/11/17 07:54:58


Gurobi 7.0.2 (win64, Python) logging started 10/11/17 07:55:39


Gurobi 7.0.2 (win64, Python) logging started 10/11/17 07:56:29

